4333 4855 7792
5493 5846 6421
4044 4720 7896
5474 5909 5769
4938 5989 7379
5088 6455 5908
5107 6392 6560
5111 5880 7186
5280 6283 6367
5020 4630 7410
4148 5896 7442
4551 6383 6806
5657 5096 5311
4532 6446 6154
5247 6396 6297
5146 5217 7193
5178 6428 6210
